(set-logic QF_UF)
(declare-fun car () Bool)
(declare-fun circuit () Bool)
(declare-fun clk () Bool)
(declare-fun prt () Bool)
(assert (not car))
(assert (or car (or (not car) clk)))
(assert (not (or (not car) clk)))
(check-sat)
(exit)
